141
0 58 97 66 86 100 109 78 3 8 
76 9 75 5 83 49 80 35 44 104 
56 133 14 113 102 55 69 136 129 42 
98 106 67 95 89 2 15 103 4 132 
53 85 111 48 91 57 118 135 105 40 
101 60 126 19 68 36 27 82 34 50 
51 77 71 92 124 131 29 64 11 70 
21 39 41 128 17 114 127 117 137 12 
31 120 47 130 6 37 88 28 74 116 
73 123 1 13 81 25 24 96 43 93 
62 115 52 140 54 138 90 119 38 26 
112 94 18 108 23 87 99 79 122 72 
59 63 139 65 125 110 61 30 32 7 
16 46 10 22 121 84 107 45 33 20 
134 
